
  22   10
  10   10   10   10   10   10   10   10   10   10

   0   0   0   0   0   0   0   0   0   0   0   1 2 
   5  10  10  10  10  10  10  10  10  10  10   2 5 3 
   9  10  10  10  10  10  10  10  10  10  10   1 4 
   7  10  10  10  10  10  10  10  10  10  10   1 6 
   5  10  10  10  10  10  10  10  10  10  10   1 6 
   1  10  10  10  10  10  10  10  10  10  10   2 8 7 
   6  10  10  10  10  10  10  10  10  10  10   3 21 13 9 
  10  10  10  10  10  10  10  10  10  10  10   4 14 13 12 11 
   7  10  10  10  10  10  10  10  10  10  10   3 14 12 10 
   2  10  10  10  10  10  10  10  10  10  10   1 11 
  10  10  10  10  10  10  10  10  10  10  10   3 19 18 15 
   2  10  10  10  10  10  10  10  10  10  10   3 20 19 17 
   5  10  10  10  10  10  10  10  10  10  10   2 18 17 
   6  10  10  10  10  10  10  10  10  10  10   1 16 
   7  10  10  10  10  10  10  10  10  10  10   1 17 
   1  10  10  10  10  10  10  10  10  10  10   1 17 
   2  10  10  10  10  10  10  10  10  10  10   1 22
   1  10  10  10  10  10  10  10  10  10  10   1 22
   9  10  10  10  10  10  10  10  10  10  10   1 22
   6  10  10  10  10  10  10  10  10  10  10   1 22
  10  10  10  10  10  10  10  10  10  10  10   1 22
   0   0   0   0   0   0   0   0   0   0   0   0 
